; benchmark generated from python API
(set-info :status unknown)
(declare-fun stdin0 () (_ BitVec 8))
(declare-fun stdin1 () (_ BitVec 8))
(declare-fun stdin2 () (_ BitVec 8))
(declare-fun stdin3 () (_ BitVec 8))
(declare-fun stdin8 () (_ BitVec 8))
(declare-fun stdin9 () (_ BitVec 8))
(declare-fun stdin10 () (_ BitVec 8))
(declare-fun stdin11 () (_ BitVec 8))
(assert
 (not (= (concat stdin3 (concat stdin2 (concat stdin1 stdin0))) (_ bv1179011410 32))))
(assert
 (not (= (concat stdin3 (concat stdin2 (concat stdin1 stdin0))) (_ bv1481001298 32))))
(assert
 (not (= (concat stdin3 (concat stdin2 (concat stdin1 stdin0))) (_ bv1297239878 32))))
(assert
 (not (= (concat stdin3 (concat stdin2 (concat stdin1 stdin0))) (_ bv1684960046 32))))
(assert
 (not (= (concat stdin3 (concat stdin2 (concat stdin1 stdin0))) (_ bv779316836 32))))
(assert
 (not (= (concat stdin3 (concat stdin2 (concat stdin1 stdin0))) (_ bv544235878 32))))
(assert
 (not (= (concat stdin3 (concat stdin2 (concat stdin1 stdin0))) (_ bv1717661728 32))))
(assert
 (not (= (concat stdin3 (concat stdin2 (concat stdin1 stdin0))) (_ bv1414744398 32))))
(assert
 (not (= (concat stdin3 (concat stdin2 (concat stdin1 stdin0))) (_ bv1634038339 32))))
(assert
 (let ((?x282357 (concat stdin3 (concat stdin2 (concat stdin1 stdin0)))))
 (not (= (bvand ?x282357 (_ bv4294508543 32)) (_ bv41828 32)))))
(assert
 (let ((?x282357 (concat stdin3 (concat stdin2 (concat stdin1 stdin0)))))
 (not (= (bvand ?x282357 (_ bv4294965503 32)) (_ bv1688403968 32)))))
(assert
 (not (= (concat stdin3 (concat stdin2 (concat stdin1 stdin0))) (_ bv1717987698 32))))
(assert
 (not (= (concat stdin3 (concat stdin2 (concat stdin1 stdin0))) (_ bv3892510720 32))))
(assert
 (not (= (concat stdin3 (concat stdin2 (concat stdin1 stdin0))) (_ bv0 32))))
(assert
 (not (= (concat stdin3 (concat stdin2 (concat stdin1 stdin0))) (_ bv1280590157 32))))
(assert
 (not (= (concat stdin3 (concat stdin2 (concat stdin1 stdin0))) (_ bv826693200 32))))
(assert
 (not (= (concat stdin3 (concat stdin2 (concat stdin1 stdin0))) (_ bv1702131781 32))))
(assert
 (not (= (concat stdin3 (concat stdin2 (concat stdin1 stdin0))) (_ bv1717985635 32))))
(assert
 (not (= (concat stdin3 (concat stdin2 (concat stdin1 stdin0))) (_ bv1399285583 32))))
(assert
 (not (= (concat stdin3 (concat stdin2 (concat stdin1 stdin0))) (_ bv2002865217 32))))
(assert
 (not (= (concat stdin3 (concat stdin2 (concat stdin1 stdin0))) (_ bv1835100484 32))))
(assert
 (not (= (concat stdin3 (concat stdin2 (concat stdin1 stdin0))) (_ bv959991116 32))))
(assert
 (not (= (concat stdin3 (concat stdin2 (concat stdin1 stdin0))) (_ bv13109 32))))
(assert
 (let ((?x282357 (concat stdin3 (concat stdin2 (concat stdin1 stdin0)))))
 (not (= (bvand ?x282357 (_ bv4286644223 32)) (_ bv16809712 32)))))
(assert
 (let ((?x282357 (concat stdin3 (concat stdin2 (concat stdin1 stdin0)))))
 (not (= (bvand ?x282357 (_ bv65535 32)) (_ bv1025 32)))))
(assert
 (not (= (concat stdin3 (concat stdin2 (concat stdin1 stdin0))) (_ bv542392643 32))))
(assert
 (not (= (concat stdin3 (concat stdin2 (concat stdin1 stdin0))) (_ bv1974609456 32))))
(assert
 (let (($x143947 (= (concat stdin11 (concat stdin10 (concat stdin9 stdin8))) (_ bv512 32))))
 (not $x143947)))
(assert
 (let ((?x282357 (concat stdin3 (concat stdin2 (concat stdin1 stdin0)))))
 (= ?x282357 (_ bv1130450022 32))))
(check-sat)
